n = 23;
lu = [|-498, 243
      |-91, 95
      |-443, 440
      |-458, -6
      |97, 339
      |-333, -275
      |-126, 520
      |-159, 117
      |205, 523
      |-317, 432
      |-328, 200
      |194, 319
      |-200, -142
      |-381, 414
      |-385, 297
      |-387, 525
      |-447, -269
      |-371, -177
      |-77, 339
      |363, 386
      |482, 504
      |376, 459
      |-412, 484|];
